p cnf 408 3345
1 0
226 0
195 0
284 0
309 0
134 0
-1 -209 0
-2 -210 0
-3 -211 0
-4 -212 0
-5 -213 0
-6 -214 0
-7 -215 0
-8 -216 0
-1 -113 0
-2 -114 0
-3 -115 0
-4 -116 0
-5 -117 0
-6 -118 0
-7 -119 0
-8 -120 0
-1 -129 0
-2 -130 0
-3 -131 0
-4 -132 0
-5 -133 0
-6 -134 0
-7 -135 0
-8 -136 0
-1 -41 0
-2 -42 0
-3 -43 0
-4 -44 0
-5 -45 0
-6 -46 0
-7 -47 0
-8 -48 0
-1 -105 0
-2 -106 0
-3 -107 0
-4 -108 0
-5 -109 0
-6 -110 0
-7 -111 0
-8 -112 0
-1 -281 0
-2 -282 0
-3 -283 0
-4 -284 0
-5 -285 0
-6 -286 0
-7 -287 0
-8 -288 0
-1 -329 0
-2 -330 0
-3 -331 0
-4 -332 0
-5 -333 0
-6 -334 0
-7 -335 0
-8 -336 0
-1 -217 0
-2 -218 0
-3 -219 0
-4 -220 0
-5 -221 0
-6 -222 0
-7 -223 0
-8 -224 0
-1 -345 0
-2 -346 0
-3 -347 0
-4 -348 0
-5 -349 0
-6 -350 0
-7 -351 0
-8 -352 0
-1 -305 0
-2 -306 0
-3 -307 0
-4 -308 0
-5 -309 0
-6 -310 0
-7 -311 0
-8 -312 0
-1 -193 0
-2 -194 0
-3 -195 0
-4 -196 0
-5 -197 0
-6 -198 0
-7 -199 0
-8 -200 0
-1 -225 0
-2 -226 0
-3 -227 0
-4 -228 0
-5 -229 0
-6 -230 0
-7 -231 0
-8 -232 0
-1 -97 0
-2 -98 0
-3 -99 0
-4 -100 0
-5 -101 0
-6 -102 0
-7 -103 0
-8 -104 0
-1 -337 0
-2 -338 0
-3 -339 0
-4 -340 0
-5 -341 0
-6 -342 0
-7 -343 0
-8 -344 0
-1 -25 0
-2 -26 0
-3 -27 0
-4 -28 0
-5 -29 0
-6 -30 0
-7 -31 0
-8 -32 0
-1 -241 0
-2 -242 0
-3 -243 0
-4 -244 0
-5 -245 0
-6 -246 0
-7 -247 0
-8 -248 0
-9 -401 0
-10 -402 0
-11 -403 0
-12 -404 0
-13 -405 0
-14 -406 0
-15 -407 0
-16 -408 0
-9 -33 0
-10 -34 0
-11 -35 0
-12 -36 0
-13 -37 0
-14 -38 0
-15 -39 0
-16 -40 0
-9 -369 0
-10 -370 0
-11 -371 0
-12 -372 0
-13 -373 0
-14 -374 0
-15 -375 0
-16 -376 0
-9 -161 0
-10 -162 0
-11 -163 0
-12 -164 0
-13 -165 0
-14 -166 0
-15 -167 0
-16 -168 0
-9 -289 0
-10 -290 0
-11 -291 0
-12 -292 0
-13 -293 0
-14 -294 0
-15 -295 0
-16 -296 0
-9 -73 0
-10 -74 0
-11 -75 0
-12 -76 0
-13 -77 0
-14 -78 0
-15 -79 0
-16 -80 0
-9 -353 0
-10 -354 0
-11 -355 0
-12 -356 0
-13 -357 0
-14 -358 0
-15 -359 0
-16 -360 0
-9 -49 0
-10 -50 0
-11 -51 0
-12 -52 0
-13 -53 0
-14 -54 0
-15 -55 0
-16 -56 0
-9 -17 0
-10 -18 0
-11 -19 0
-12 -20 0
-13 -21 0
-14 -22 0
-15 -23 0
-16 -24 0
-9 -385 0
-10 -386 0
-11 -387 0
-12 -388 0
-13 -389 0
-14 -390 0
-15 -391 0
-16 -392 0
-9 -361 0
-10 -362 0
-11 -363 0
-12 -364 0
-13 -365 0
-14 -366 0
-15 -367 0
-16 -368 0
-9 -201 0
-10 -202 0
-11 -203 0
-12 -204 0
-13 -205 0
-14 -206 0
-15 -207 0
-16 -208 0
-9 -377 0
-10 -378 0
-11 -379 0
-12 -380 0
-13 -381 0
-14 -382 0
-15 -383 0
-16 -384 0
-9 -313 0
-10 -314 0
-11 -315 0
-12 -316 0
-13 -317 0
-14 -318 0
-15 -319 0
-16 -320 0
-9 -321 0
-10 -322 0
-11 -323 0
-12 -324 0
-13 -325 0
-14 -326 0
-15 -327 0
-16 -328 0
-9 -273 0
-10 -274 0
-11 -275 0
-12 -276 0
-13 -277 0
-14 -278 0
-15 -279 0
-16 -280 0
-17 -401 0
-18 -402 0
-19 -403 0
-20 -404 0
-21 -405 0
-22 -406 0
-23 -407 0
-24 -408 0
-17 -33 0
-18 -34 0
-19 -35 0
-20 -36 0
-21 -37 0
-22 -38 0
-23 -39 0
-24 -40 0
-17 -369 0
-18 -370 0
-19 -371 0
-20 -372 0
-21 -373 0
-22 -374 0
-23 -375 0
-24 -376 0
-17 -161 0
-18 -162 0
-19 -163 0
-20 -164 0
-21 -165 0
-22 -166 0
-23 -167 0
-24 -168 0
-17 -49 0
-18 -50 0
-19 -51 0
-20 -52 0
-21 -53 0
-22 -54 0
-23 -55 0
-24 -56 0
-17 -249 0
-18 -250 0
-19 -251 0
-20 -252 0
-21 -253 0
-22 -254 0
-23 -255 0
-24 -256 0
-17 -385 0
-18 -386 0
-19 -387 0
-20 -388 0
-21 -389 0
-22 -390 0
-23 -391 0
-24 -392 0
-17 -321 0
-18 -322 0
-19 -323 0
-20 -324 0
-21 -325 0
-22 -326 0
-23 -327 0
-24 -328 0
-17 -273 0
-18 -274 0
-19 -275 0
-20 -276 0
-21 -277 0
-22 -278 0
-23 -279 0
-24 -280 0
-17 -121 0
-18 -122 0
-19 -123 0
-20 -124 0
-21 -125 0
-22 -126 0
-23 -127 0
-24 -128 0
-17 -377 0
-18 -378 0
-19 -379 0
-20 -380 0
-21 -381 0
-22 -382 0
-23 -383 0
-24 -384 0
-17 -361 0
-18 -362 0
-19 -363 0
-20 -364 0
-21 -365 0
-22 -366 0
-23 -367 0
-24 -368 0
-17 -233 0
-18 -234 0
-19 -235 0
-20 -236 0
-21 -237 0
-22 -238 0
-23 -239 0
-24 -240 0
-17 -257 0
-18 -258 0
-19 -259 0
-20 -260 0
-21 -261 0
-22 -262 0
-23 -263 0
-24 -264 0
-17 -201 0
-18 -202 0
-19 -203 0
-20 -204 0
-21 -205 0
-22 -206 0
-23 -207 0
-24 -208 0
-17 -153 0
-18 -154 0
-19 -155 0
-20 -156 0
-21 -157 0
-22 -158 0
-23 -159 0
-24 -160 0
-25 -209 0
-26 -210 0
-27 -211 0
-28 -212 0
-29 -213 0
-30 -214 0
-31 -215 0
-32 -216 0
-25 -401 0
-26 -402 0
-27 -403 0
-28 -404 0
-29 -405 0
-30 -406 0
-31 -407 0
-32 -408 0
-25 -113 0
-26 -114 0
-27 -115 0
-28 -116 0
-29 -117 0
-30 -118 0
-31 -119 0
-32 -120 0
-25 -129 0
-26 -130 0
-27 -131 0
-28 -132 0
-29 -133 0
-30 -134 0
-31 -135 0
-32 -136 0
-25 -41 0
-26 -42 0
-27 -43 0
-28 -44 0
-29 -45 0
-30 -46 0
-31 -47 0
-32 -48 0
-25 -105 0
-26 -106 0
-27 -107 0
-28 -108 0
-29 -109 0
-30 -110 0
-31 -111 0
-32 -112 0
-25 -281 0
-26 -282 0
-27 -283 0
-28 -284 0
-29 -285 0
-30 -286 0
-31 -287 0
-32 -288 0
-25 -289 0
-26 -290 0
-27 -291 0
-28 -292 0
-29 -293 0
-30 -294 0
-31 -295 0
-32 -296 0
-25 -73 0
-26 -74 0
-27 -75 0
-28 -76 0
-29 -77 0
-30 -78 0
-31 -79 0
-32 -80 0
-25 -345 0
-26 -346 0
-27 -347 0
-28 -348 0
-29 -349 0
-30 -350 0
-31 -351 0
-32 -352 0
-25 -97 0
-26 -98 0
-27 -99 0
-28 -100 0
-29 -101 0
-30 -102 0
-31 -103 0
-32 -104 0
-25 -377 0
-26 -378 0
-27 -379 0
-28 -380 0
-29 -381 0
-30 -382 0
-31 -383 0
-32 -384 0
-25 -361 0
-26 -362 0
-27 -363 0
-28 -364 0
-29 -365 0
-30 -366 0
-31 -367 0
-32 -368 0
-25 -137 0
-26 -138 0
-27 -139 0
-28 -140 0
-29 -141 0
-30 -142 0
-31 -143 0
-32 -144 0
-33 -369 0
-34 -370 0
-35 -371 0
-36 -372 0
-37 -373 0
-38 -374 0
-39 -375 0
-40 -376 0
-33 -161 0
-34 -162 0
-35 -163 0
-36 -164 0
-37 -165 0
-38 -166 0
-39 -167 0
-40 -168 0
-33 -201 0
-34 -202 0
-35 -203 0
-36 -204 0
-37 -205 0
-38 -206 0
-39 -207 0
-40 -208 0
-33 -353 0
-34 -354 0
-35 -355 0
-36 -356 0
-37 -357 0
-38 -358 0
-39 -359 0
-40 -360 0
-33 -49 0
-34 -50 0
-35 -51 0
-36 -52 0
-37 -53 0
-38 -54 0
-39 -55 0
-40 -56 0
-33 -385 0
-34 -386 0
-35 -387 0
-36 -388 0
-37 -389 0
-38 -390 0
-39 -391 0
-40 -392 0
-33 -121 0
-34 -122 0
-35 -123 0
-36 -124 0
-37 -125 0
-38 -126 0
-39 -127 0
-40 -128 0
-33 -265 0
-34 -266 0
-35 -267 0
-36 -268 0
-37 -269 0
-38 -270 0
-39 -271 0
-40 -272 0
-33 -361 0
-34 -362 0
-35 -363 0
-36 -364 0
-37 -365 0
-38 -366 0
-39 -367 0
-40 -368 0
-33 -313 0
-34 -314 0
-35 -315 0
-36 -316 0
-37 -317 0
-38 -318 0
-39 -319 0
-40 -320 0
-33 -321 0
-34 -322 0
-35 -323 0
-36 -324 0
-37 -325 0
-38 -326 0
-39 -327 0
-40 -328 0
-33 -257 0
-34 -258 0
-35 -259 0
-36 -260 0
-37 -261 0
-38 -262 0
-39 -263 0
-40 -264 0
-33 -273 0
-34 -274 0
-35 -275 0
-36 -276 0
-37 -277 0
-38 -278 0
-39 -279 0
-40 -280 0
-41 -209 0
-42 -210 0
-43 -211 0
-44 -212 0
-45 -213 0
-46 -214 0
-47 -215 0
-48 -216 0
-41 -113 0
-42 -114 0
-43 -115 0
-44 -116 0
-45 -117 0
-46 -118 0
-47 -119 0
-48 -120 0
-41 -57 0
-42 -58 0
-43 -59 0
-44 -60 0
-45 -61 0
-46 -62 0
-47 -63 0
-48 -64 0
-41 -129 0
-42 -130 0
-43 -131 0
-44 -132 0
-45 -133 0
-46 -134 0
-47 -135 0
-48 -136 0
-41 -105 0
-42 -106 0
-43 -107 0
-44 -108 0
-45 -109 0
-46 -110 0
-47 -111 0
-48 -112 0
-41 -281 0
-42 -282 0
-43 -283 0
-44 -284 0
-45 -285 0
-46 -286 0
-47 -287 0
-48 -288 0
-41 -97 0
-42 -98 0
-43 -99 0
-44 -100 0
-45 -101 0
-46 -102 0
-47 -103 0
-48 -104 0
-41 -289 0
-42 -290 0
-43 -291 0
-44 -292 0
-45 -293 0
-46 -294 0
-47 -295 0
-48 -296 0
-41 -73 0
-42 -74 0
-43 -75 0
-44 -76 0
-45 -77 0
-46 -78 0
-47 -79 0
-48 -80 0
-41 -329 0
-42 -330 0
-43 -331 0
-44 -332 0
-45 -333 0
-46 -334 0
-47 -335 0
-48 -336 0
-41 -345 0
-42 -346 0
-43 -347 0
-44 -348 0
-45 -349 0
-46 -350 0
-47 -351 0
-48 -352 0
-41 -305 0
-42 -306 0
-43 -307 0
-44 -308 0
-45 -309 0
-46 -310 0
-47 -311 0
-48 -312 0
-41 -193 0
-42 -194 0
-43 -195 0
-44 -196 0
-45 -197 0
-46 -198 0
-47 -199 0
-48 -200 0
-41 -137 0
-42 -138 0
-43 -139 0
-44 -140 0
-45 -141 0
-46 -142 0
-47 -143 0
-48 -144 0
-49 -161 0
-50 -162 0
-51 -163 0
-52 -164 0
-53 -165 0
-54 -166 0
-55 -167 0
-56 -168 0
-49 -105 0
-50 -106 0
-51 -107 0
-52 -108 0
-53 -109 0
-54 -110 0
-55 -111 0
-56 -112 0
-49 -289 0
-50 -290 0
-51 -291 0
-52 -292 0
-53 -293 0
-54 -294 0
-55 -295 0
-56 -296 0
-49 -73 0
-50 -74 0
-51 -75 0
-52 -76 0
-53 -77 0
-54 -78 0
-55 -79 0
-56 -80 0
-49 -353 0
-50 -354 0
-51 -355 0
-52 -356 0
-53 -357 0
-54 -358 0
-55 -359 0
-56 -360 0
-49 -361 0
-50 -362 0
-51 -363 0
-52 -364 0
-53 -365 0
-54 -366 0
-55 -367 0
-56 -368 0
-49 -201 0
-50 -202 0
-51 -203 0
-52 -204 0
-53 -205 0
-54 -206 0
-55 -207 0
-56 -208 0
-49 -385 0
-50 -386 0
-51 -387 0
-52 -388 0
-53 -389 0
-54 -390 0
-55 -391 0
-56 -392 0
-49 -377 0
-50 -378 0
-51 -379 0
-52 -380 0
-53 -381 0
-54 -382 0
-55 -383 0
-56 -384 0
-49 -137 0
-50 -138 0
-51 -139 0
-52 -140 0
-53 -141 0
-54 -142 0
-55 -143 0
-56 -144 0
-49 -313 0
-50 -314 0
-51 -315 0
-52 -316 0
-53 -317 0
-54 -318 0
-55 -319 0
-56 -320 0
-49 -177 0
-50 -178 0
-51 -179 0
-52 -180 0
-53 -181 0
-54 -182 0
-55 -183 0
-56 -184 0
-57 -297 0
-58 -298 0
-59 -299 0
-60 -300 0
-61 -301 0
-62 -302 0
-63 -303 0
-64 -304 0
-57 -65 0
-58 -66 0
-59 -67 0
-60 -68 0
-61 -69 0
-62 -70 0
-63 -71 0
-64 -72 0
-57 -305 0
-58 -306 0
-59 -307 0
-60 -308 0
-61 -309 0
-62 -310 0
-63 -311 0
-64 -312 0
-57 -129 0
-58 -130 0
-59 -131 0
-60 -132 0
-61 -133 0
-62 -134 0
-63 -135 0
-64 -136 0
-57 -137 0
-58 -138 0
-59 -139 0
-60 -140 0
-61 -141 0
-62 -142 0
-63 -143 0
-64 -144 0
-57 -177 0
-58 -178 0
-59 -179 0
-60 -180 0
-61 -181 0
-62 -182 0
-63 -183 0
-64 -184 0
-57 -105 0
-58 -106 0
-59 -107 0
-60 -108 0
-61 -109 0
-62 -110 0
-63 -111 0
-64 -112 0
-57 -281 0
-58 -282 0
-59 -283 0
-60 -284 0
-61 -285 0
-62 -286 0
-63 -287 0
-64 -288 0
-57 -73 0
-58 -74 0
-59 -75 0
-60 -76 0
-61 -77 0
-62 -78 0
-63 -79 0
-64 -80 0
-57 -353 0
-58 -354 0
-59 -355 0
-60 -356 0
-61 -357 0
-62 -358 0
-63 -359 0
-64 -360 0
-57 -193 0
-58 -194 0
-59 -195 0
-60 -196 0
-61 -197 0
-62 -198 0
-63 -199 0
-64 -200 0
-57 -225 0
-58 -226 0
-59 -227 0
-60 -228 0
-61 -229 0
-62 -230 0
-63 -231 0
-64 -232 0
-57 -265 0
-58 -266 0
-59 -267 0
-60 -268 0
-61 -269 0
-62 -270 0
-63 -271 0
-64 -272 0
-57 -313 0
-58 -314 0
-59 -315 0
-60 -316 0
-61 -317 0
-62 -318 0
-63 -319 0
-64 -320 0
-57 -393 0
-58 -394 0
-59 -395 0
-60 -396 0
-61 -397 0
-62 -398 0
-63 -399 0
-64 -400 0
-65 -297 0
-66 -298 0
-67 -299 0
-68 -300 0
-69 -301 0
-70 -302 0
-71 -303 0
-72 -304 0
-65 -305 0
-66 -306 0
-67 -307 0
-68 -308 0
-69 -309 0
-70 -310 0
-71 -311 0
-72 -312 0
-65 -225 0
-66 -226 0
-67 -227 0
-68 -228 0
-69 -229 0
-70 -230 0
-71 -231 0
-72 -232 0
-65 -393 0
-66 -394 0
-67 -395 0
-68 -396 0
-69 -397 0
-70 -398 0
-71 -399 0
-72 -400 0
-65 -129 0
-66 -130 0
-67 -131 0
-68 -132 0
-69 -133 0
-70 -134 0
-71 -135 0
-72 -136 0
-65 -281 0
-66 -282 0
-67 -283 0
-68 -284 0
-69 -285 0
-70 -286 0
-71 -287 0
-72 -288 0
-65 -193 0
-66 -194 0
-67 -195 0
-68 -196 0
-69 -197 0
-70 -198 0
-71 -199 0
-72 -200 0
-65 -265 0
-66 -266 0
-67 -267 0
-68 -268 0
-69 -269 0
-70 -270 0
-71 -271 0
-72 -272 0
-65 -137 0
-66 -138 0
-67 -139 0
-68 -140 0
-69 -141 0
-70 -142 0
-71 -143 0
-72 -144 0
-65 -313 0
-66 -314 0
-67 -315 0
-68 -316 0
-69 -317 0
-70 -318 0
-71 -319 0
-72 -320 0
-65 -337 0
-66 -338 0
-67 -339 0
-68 -340 0
-69 -341 0
-70 -342 0
-71 -343 0
-72 -344 0
-65 -169 0
-66 -170 0
-67 -171 0
-68 -172 0
-69 -173 0
-70 -174 0
-71 -175 0
-72 -176 0
-65 -177 0
-66 -178 0
-67 -179 0
-68 -180 0
-69 -181 0
-70 -182 0
-71 -183 0
-72 -184 0
-65 -89 0
-66 -90 0
-67 -91 0
-68 -92 0
-69 -93 0
-70 -94 0
-71 -95 0
-72 -96 0
-73 -113 0
-74 -114 0
-75 -115 0
-76 -116 0
-77 -117 0
-78 -118 0
-79 -119 0
-80 -120 0
-73 -129 0
-74 -130 0
-75 -131 0
-76 -132 0
-77 -133 0
-78 -134 0
-79 -135 0
-80 -136 0
-73 -105 0
-74 -106 0
-75 -107 0
-76 -108 0
-77 -109 0
-78 -110 0
-79 -111 0
-80 -112 0
-73 -289 0
-74 -290 0
-75 -291 0
-76 -292 0
-77 -293 0
-78 -294 0
-79 -295 0
-80 -296 0
-73 -353 0
-74 -354 0
-75 -355 0
-76 -356 0
-77 -357 0
-78 -358 0
-79 -359 0
-80 -360 0
-73 -361 0
-74 -362 0
-75 -363 0
-76 -364 0
-77 -365 0
-78 -366 0
-79 -367 0
-80 -368 0
-73 -137 0
-74 -138 0
-75 -139 0
-76 -140 0
-77 -141 0
-78 -142 0
-79 -143 0
-80 -144 0
-73 -385 0
-74 -386 0
-75 -387 0
-76 -388 0
-77 -389 0
-78 -390 0
-79 -391 0
-80 -392 0
-73 -377 0
-74 -378 0
-75 -379 0
-76 -380 0
-77 -381 0
-78 -382 0
-79 -383 0
-80 -384 0
-73 -313 0
-74 -314 0
-75 -315 0
-76 -316 0
-77 -317 0
-78 -318 0
-79 -319 0
-80 -320 0
-73 -177 0
-74 -178 0
-75 -179 0
-76 -180 0
-77 -181 0
-78 -182 0
-79 -183 0
-80 -184 0
-73 -201 0
-74 -202 0
-75 -203 0
-76 -204 0
-77 -205 0
-78 -206 0
-79 -207 0
-80 -208 0
-81 -209 0
-82 -210 0
-83 -211 0
-84 -212 0
-85 -213 0
-86 -214 0
-87 -215 0
-88 -216 0
-81 -249 0
-82 -250 0
-83 -251 0
-84 -252 0
-85 -253 0
-86 -254 0
-87 -255 0
-88 -256 0
-81 -329 0
-82 -330 0
-83 -331 0
-84 -332 0
-85 -333 0
-86 -334 0
-87 -335 0
-88 -336 0
-81 -217 0
-82 -218 0
-83 -219 0
-84 -220 0
-85 -221 0
-86 -222 0
-87 -223 0
-88 -224 0
-81 -345 0
-82 -346 0
-83 -347 0
-84 -348 0
-85 -349 0
-86 -350 0
-87 -351 0
-88 -352 0
-81 -321 0
-82 -322 0
-83 -323 0
-84 -324 0
-85 -325 0
-86 -326 0
-87 -327 0
-88 -328 0
-81 -145 0
-82 -146 0
-83 -147 0
-84 -148 0
-85 -149 0
-86 -150 0
-87 -151 0
-88 -152 0
-81 -233 0
-82 -234 0
-83 -235 0
-84 -236 0
-85 -237 0
-86 -238 0
-87 -239 0
-88 -240 0
-81 -153 0
-82 -154 0
-83 -155 0
-84 -156 0
-85 -157 0
-86 -158 0
-87 -159 0
-88 -160 0
-81 -241 0
-82 -242 0
-83 -243 0
-84 -244 0
-85 -245 0
-86 -246 0
-87 -247 0
-88 -248 0
-81 -337 0
-82 -338 0
-83 -339 0
-84 -340 0
-85 -341 0
-86 -342 0
-87 -343 0
-88 -344 0
-81 -257 0
-82 -258 0
-83 -259 0
-84 -260 0
-85 -261 0
-86 -262 0
-87 -263 0
-88 -264 0
-81 -185 0
-82 -186 0
-83 -187 0
-84 -188 0
-85 -189 0
-86 -190 0
-87 -191 0
-88 -192 0
-81 -273 0
-82 -274 0
-83 -275 0
-84 -276 0
-85 -277 0
-86 -278 0
-87 -279 0
-88 -280 0
-81 -89 0
-82 -90 0
-83 -91 0
-84 -92 0
-85 -93 0
-86 -94 0
-87 -95 0
-88 -96 0
-89 -297 0
-90 -298 0
-91 -299 0
-92 -300 0
-93 -301 0
-94 -302 0
-95 -303 0
-96 -304 0
-89 -329 0
-90 -330 0
-91 -331 0
-92 -332 0
-93 -333 0
-94 -334 0
-95 -335 0
-96 -336 0
-89 -217 0
-90 -218 0
-91 -219 0
-92 -220 0
-93 -221 0
-94 -222 0
-95 -223 0
-96 -224 0
-89 -305 0
-90 -306 0
-91 -307 0
-92 -308 0
-93 -309 0
-94 -310 0
-95 -311 0
-96 -312 0
-89 -193 0
-90 -194 0
-91 -195 0
-92 -196 0
-93 -197 0
-94 -198 0
-95 -199 0
-96 -200 0
-89 -225 0
-90 -226 0
-91 -227 0
-92 -228 0
-93 -229 0
-94 -230 0
-95 -231 0
-96 -232 0
-89 -121 0
-90 -122 0
-91 -123 0
-92 -124 0
-93 -125 0
-94 -126 0
-95 -127 0
-96 -128 0
-89 -265 0
-90 -266 0
-91 -267 0
-92 -268 0
-93 -269 0
-94 -270 0
-95 -271 0
-96 -272 0
-89 -145 0
-90 -146 0
-91 -147 0
-92 -148 0
-93 -149 0
-94 -150 0
-95 -151 0
-96 -152 0
-89 -233 0
-90 -234 0
-91 -235 0
-92 -236 0
-93 -237 0
-94 -238 0
-95 -239 0
-96 -240 0
-89 -337 0
-90 -338 0
-91 -339 0
-92 -340 0
-93 -341 0
-94 -342 0
-95 -343 0
-96 -344 0
-89 -257 0
-90 -258 0
-91 -259 0
-92 -260 0
-93 -261 0
-94 -262 0
-95 -263 0
-96 -264 0
-89 -169 0
-90 -170 0
-91 -171 0
-92 -172 0
-93 -173 0
-94 -174 0
-95 -175 0
-96 -176 0
-89 -185 0
-90 -186 0
-91 -187 0
-92 -188 0
-93 -189 0
-94 -190 0
-95 -191 0
-96 -192 0
-89 -393 0
-90 -394 0
-91 -395 0
-92 -396 0
-93 -397 0
-94 -398 0
-95 -399 0
-96 -400 0
-97 -209 0
-98 -210 0
-99 -211 0
-100 -212 0
-101 -213 0
-102 -214 0
-103 -215 0
-104 -216 0
-97 -401 0
-98 -402 0
-99 -403 0
-100 -404 0
-101 -405 0
-102 -406 0
-103 -407 0
-104 -408 0
-97 -113 0
-98 -114 0
-99 -115 0
-100 -116 0
-101 -117 0
-102 -118 0
-103 -119 0
-104 -120 0
-97 -129 0
-98 -130 0
-99 -131 0
-100 -132 0
-101 -133 0
-102 -134 0
-103 -135 0
-104 -136 0
-97 -105 0
-98 -106 0
-99 -107 0
-100 -108 0
-101 -109 0
-102 -110 0
-103 -111 0
-104 -112 0
-97 -281 0
-98 -282 0
-99 -283 0
-100 -284 0
-101 -285 0
-102 -286 0
-103 -287 0
-104 -288 0
-97 -289 0
-98 -290 0
-99 -291 0
-100 -292 0
-101 -293 0
-102 -294 0
-103 -295 0
-104 -296 0
-97 -249 0
-98 -250 0
-99 -251 0
-100 -252 0
-101 -253 0
-102 -254 0
-103 -255 0
-104 -256 0
-97 -329 0
-98 -330 0
-99 -331 0
-100 -332 0
-101 -333 0
-102 -334 0
-103 -335 0
-104 -336 0
-97 -217 0
-98 -218 0
-99 -219 0
-100 -220 0
-101 -221 0
-102 -222 0
-103 -223 0
-104 -224 0
-97 -345 0
-98 -346 0
-99 -347 0
-100 -348 0
-101 -349 0
-102 -350 0
-103 -351 0
-104 -352 0
-97 -193 0
-98 -194 0
-99 -195 0
-100 -196 0
-101 -197 0
-102 -198 0
-103 -199 0
-104 -200 0
-97 -377 0
-98 -378 0
-99 -379 0
-100 -380 0
-101 -381 0
-102 -382 0
-103 -383 0
-104 -384 0
-97 -241 0
-98 -242 0
-99 -243 0
-100 -244 0
-101 -245 0
-102 -246 0
-103 -247 0
-104 -248 0
-105 -113 0
-106 -114 0
-107 -115 0
-108 -116 0
-109 -117 0
-110 -118 0
-111 -119 0
-112 -120 0
-105 -129 0
-106 -130 0
-107 -131 0
-108 -132 0
-109 -133 0
-110 -134 0
-111 -135 0
-112 -136 0
-105 -289 0
-106 -290 0
-107 -291 0
-108 -292 0
-109 -293 0
-110 -294 0
-111 -295 0
-112 -296 0
-105 -137 0
-106 -138 0
-107 -139 0
-108 -140 0
-109 -141 0
-110 -142 0
-111 -143 0
-112 -144 0
-105 -281 0
-106 -282 0
-107 -283 0
-108 -284 0
-109 -285 0
-110 -286 0
-111 -287 0
-112 -288 0
-105 -353 0
-106 -354 0
-107 -355 0
-108 -356 0
-109 -357 0
-110 -358 0
-111 -359 0
-112 -360 0
-105 -305 0
-106 -306 0
-107 -307 0
-108 -308 0
-109 -309 0
-110 -310 0
-111 -311 0
-112 -312 0
-105 -377 0
-106 -378 0
-107 -379 0
-108 -380 0
-109 -381 0
-110 -382 0
-111 -383 0
-112 -384 0
-105 -361 0
-106 -362 0
-107 -363 0
-108 -364 0
-109 -365 0
-110 -366 0
-111 -367 0
-112 -368 0
-105 -177 0
-106 -178 0
-107 -179 0
-108 -180 0
-109 -181 0
-110 -182 0
-111 -183 0
-112 -184 0
-113 -209 0
-114 -210 0
-115 -211 0
-116 -212 0
-117 -213 0
-118 -214 0
-119 -215 0
-120 -216 0
-113 -401 0
-114 -402 0
-115 -403 0
-116 -404 0
-117 -405 0
-118 -406 0
-119 -407 0
-120 -408 0
-113 -289 0
-114 -290 0
-115 -291 0
-116 -292 0
-117 -293 0
-118 -294 0
-119 -295 0
-120 -296 0
-113 -377 0
-114 -378 0
-115 -379 0
-116 -380 0
-117 -381 0
-118 -382 0
-119 -383 0
-120 -384 0
-113 -249 0
-114 -250 0
-115 -251 0
-116 -252 0
-117 -253 0
-118 -254 0
-119 -255 0
-120 -256 0
-113 -345 0
-114 -346 0
-115 -347 0
-116 -348 0
-117 -349 0
-118 -350 0
-119 -351 0
-120 -352 0
-113 -385 0
-114 -386 0
-115 -387 0
-116 -388 0
-117 -389 0
-118 -390 0
-119 -391 0
-120 -392 0
-113 -361 0
-114 -362 0
-115 -363 0
-116 -364 0
-117 -365 0
-118 -366 0
-119 -367 0
-120 -368 0
-113 -321 0
-114 -322 0
-115 -323 0
-116 -324 0
-117 -325 0
-118 -326 0
-119 -327 0
-120 -328 0
-113 -241 0
-114 -242 0
-115 -243 0
-116 -244 0
-117 -245 0
-118 -246 0
-119 -247 0
-120 -248 0
-121 -369 0
-122 -370 0
-123 -371 0
-124 -372 0
-125 -373 0
-126 -374 0
-127 -375 0
-128 -376 0
-121 -161 0
-122 -162 0
-123 -163 0
-124 -164 0
-125 -165 0
-126 -166 0
-127 -167 0
-128 -168 0
-121 -297 0
-122 -298 0
-123 -299 0
-124 -300 0
-125 -301 0
-126 -302 0
-127 -303 0
-128 -304 0
-121 -265 0
-122 -266 0
-123 -267 0
-124 -268 0
-125 -269 0
-126 -270 0
-127 -271 0
-128 -272 0
-121 -257 0
-122 -258 0
-123 -259 0
-124 -260 0
-125 -261 0
-126 -262 0
-127 -263 0
-128 -264 0
-121 -169 0
-122 -170 0
-123 -171 0
-124 -172 0
-125 -173 0
-126 -174 0
-127 -175 0
-128 -176 0
-121 -185 0
-122 -186 0
-123 -187 0
-124 -188 0
-125 -189 0
-126 -190 0
-127 -191 0
-128 -192 0
-121 -313 0
-122 -314 0
-123 -315 0
-124 -316 0
-125 -317 0
-126 -318 0
-127 -319 0
-128 -320 0
-121 -145 0
-122 -146 0
-123 -147 0
-124 -148 0
-125 -149 0
-126 -150 0
-127 -151 0
-128 -152 0
-121 -233 0
-122 -234 0
-123 -235 0
-124 -236 0
-125 -237 0
-126 -238 0
-127 -239 0
-128 -240 0
-121 -201 0
-122 -202 0
-123 -203 0
-124 -204 0
-125 -205 0
-126 -206 0
-127 -207 0
-128 -208 0
-121 -393 0
-122 -394 0
-123 -395 0
-124 -396 0
-125 -397 0
-126 -398 0
-127 -399 0
-128 -400 0
-121 -273 0
-122 -274 0
-123 -275 0
-124 -276 0
-125 -277 0
-126 -278 0
-127 -279 0
-128 -280 0
-129 -297 0
-130 -298 0
-131 -299 0
-132 -300 0
-133 -301 0
-134 -302 0
-135 -303 0
-136 -304 0
-129 -281 0
-130 -282 0
-131 -283 0
-132 -284 0
-133 -285 0
-134 -286 0
-135 -287 0
-136 -288 0
-129 -305 0
-130 -306 0
-131 -307 0
-132 -308 0
-133 -309 0
-134 -310 0
-135 -311 0
-136 -312 0
-129 -137 0
-130 -138 0
-131 -139 0
-132 -140 0
-133 -141 0
-134 -142 0
-135 -143 0
-136 -144 0
-129 -289 0
-130 -290 0
-131 -291 0
-132 -292 0
-133 -293 0
-134 -294 0
-135 -295 0
-136 -296 0
-129 -353 0
-130 -354 0
-131 -355 0
-132 -356 0
-133 -357 0
-134 -358 0
-135 -359 0
-136 -360 0
-129 -193 0
-130 -194 0
-131 -195 0
-132 -196 0
-133 -197 0
-134 -198 0
-135 -199 0
-136 -200 0
-129 -225 0
-130 -226 0
-131 -227 0
-132 -228 0
-133 -229 0
-134 -230 0
-135 -231 0
-136 -232 0
-129 -177 0
-130 -178 0
-131 -179 0
-132 -180 0
-133 -181 0
-134 -182 0
-135 -183 0
-136 -184 0
-137 -297 0
-138 -298 0
-139 -299 0
-140 -300 0
-141 -301 0
-142 -302 0
-143 -303 0
-144 -304 0
-137 -281 0
-138 -282 0
-139 -283 0
-140 -284 0
-141 -285 0
-142 -286 0
-143 -287 0
-144 -288 0
-137 -289 0
-138 -290 0
-139 -291 0
-140 -292 0
-141 -293 0
-142 -294 0
-143 -295 0
-144 -296 0
-137 -353 0
-138 -354 0
-139 -355 0
-140 -356 0
-141 -357 0
-142 -358 0
-143 -359 0
-144 -360 0
-137 -305 0
-138 -306 0
-139 -307 0
-140 -308 0
-141 -309 0
-142 -310 0
-143 -311 0
-144 -312 0
-137 -361 0
-138 -362 0
-139 -363 0
-140 -364 0
-141 -365 0
-142 -366 0
-143 -367 0
-144 -368 0
-137 -177 0
-138 -178 0
-139 -179 0
-140 -180 0
-141 -181 0
-142 -182 0
-143 -183 0
-144 -184 0
-137 -313 0
-138 -314 0
-139 -315 0
-140 -316 0
-141 -317 0
-142 -318 0
-143 -319 0
-144 -320 0
-137 -201 0
-138 -202 0
-139 -203 0
-140 -204 0
-141 -205 0
-142 -206 0
-143 -207 0
-144 -208 0
-145 -329 0
-146 -330 0
-147 -331 0
-148 -332 0
-149 -333 0
-150 -334 0
-151 -335 0
-152 -336 0
-145 -217 0
-146 -218 0
-147 -219 0
-148 -220 0
-149 -221 0
-150 -222 0
-151 -223 0
-152 -224 0
-145 -345 0
-146 -346 0
-147 -347 0
-148 -348 0
-149 -349 0
-150 -350 0
-151 -351 0
-152 -352 0
-145 -193 0
-146 -194 0
-147 -195 0
-148 -196 0
-149 -197 0
-150 -198 0
-151 -199 0
-152 -200 0
-145 -225 0
-146 -226 0
-147 -227 0
-148 -228 0
-149 -229 0
-150 -230 0
-151 -231 0
-152 -232 0
-145 -233 0
-146 -234 0
-147 -235 0
-148 -236 0
-149 -237 0
-150 -238 0
-151 -239 0
-152 -240 0
-145 -337 0
-146 -338 0
-147 -339 0
-148 -340 0
-149 -341 0
-150 -342 0
-151 -343 0
-152 -344 0
-145 -185 0
-146 -186 0
-147 -187 0
-148 -188 0
-149 -189 0
-150 -190 0
-151 -191 0
-152 -192 0
-145 -257 0
-146 -258 0
-147 -259 0
-148 -260 0
-149 -261 0
-150 -262 0
-151 -263 0
-152 -264 0
-145 -169 0
-146 -170 0
-147 -171 0
-148 -172 0
-149 -173 0
-150 -174 0
-151 -175 0
-152 -176 0
-145 -153 0
-146 -154 0
-147 -155 0
-148 -156 0
-149 -157 0
-150 -158 0
-151 -159 0
-152 -160 0
-145 -241 0
-146 -242 0
-147 -243 0
-148 -244 0
-149 -245 0
-150 -246 0
-151 -247 0
-152 -248 0
-145 -393 0
-146 -394 0
-147 -395 0
-148 -396 0
-149 -397 0
-150 -398 0
-151 -399 0
-152 -400 0
-145 -273 0
-146 -274 0
-147 -275 0
-148 -276 0
-149 -277 0
-150 -278 0
-151 -279 0
-152 -280 0
-153 -209 0
-154 -210 0
-155 -211 0
-156 -212 0
-157 -213 0
-158 -214 0
-159 -215 0
-160 -216 0
-153 -401 0
-154 -402 0
-155 -403 0
-156 -404 0
-157 -405 0
-158 -406 0
-159 -407 0
-160 -408 0
-153 -369 0
-154 -370 0
-155 -371 0
-156 -372 0
-157 -373 0
-158 -374 0
-159 -375 0
-160 -376 0
-153 -249 0
-154 -250 0
-155 -251 0
-156 -252 0
-157 -253 0
-158 -254 0
-159 -255 0
-160 -256 0
-153 -217 0
-154 -218 0
-155 -219 0
-156 -220 0
-157 -221 0
-158 -222 0
-159 -223 0
-160 -224 0
-153 -345 0
-154 -346 0
-155 -347 0
-156 -348 0
-157 -349 0
-158 -350 0
-159 -351 0
-160 -352 0
-153 -385 0
-154 -386 0
-155 -387 0
-156 -388 0
-157 -389 0
-158 -390 0
-159 -391 0
-160 -392 0
-153 -321 0
-154 -322 0
-155 -323 0
-156 -324 0
-157 -325 0
-158 -326 0
-159 -327 0
-160 -328 0
-153 -233 0
-154 -234 0
-155 -235 0
-156 -236 0
-157 -237 0
-158 -238 0
-159 -239 0
-160 -240 0
-153 -257 0
-154 -258 0
-155 -259 0
-156 -260 0
-157 -261 0
-158 -262 0
-159 -263 0
-160 -264 0
-153 -241 0
-154 -242 0
-155 -243 0
-156 -244 0
-157 -245 0
-158 -246 0
-159 -247 0
-160 -248 0
-153 -273 0
-154 -274 0
-155 -275 0
-156 -276 0
-157 -277 0
-158 -278 0
-159 -279 0
-160 -280 0
-153 -185 0
-154 -186 0
-155 -187 0
-156 -188 0
-157 -189 0
-158 -190 0
-159 -191 0
-160 -192 0
-161 -369 0
-162 -370 0
-163 -371 0
-164 -372 0
-165 -373 0
-166 -374 0
-167 -375 0
-168 -376 0
-161 -265 0
-162 -266 0
-163 -267 0
-164 -268 0
-165 -269 0
-166 -270 0
-167 -271 0
-168 -272 0
-161 -313 0
-162 -314 0
-163 -315 0
-164 -316 0
-165 -317 0
-166 -318 0
-167 -319 0
-168 -320 0
-161 -201 0
-162 -202 0
-163 -203 0
-164 -204 0
-165 -205 0
-166 -206 0
-167 -207 0
-168 -208 0
-161 -297 0
-162 -298 0
-163 -299 0
-164 -300 0
-165 -301 0
-166 -302 0
-167 -303 0
-168 -304 0
-161 -353 0
-162 -354 0
-163 -355 0
-164 -356 0
-165 -357 0
-166 -358 0
-167 -359 0
-168 -360 0
-161 -257 0
-162 -258 0
-163 -259 0
-164 -260 0
-165 -261 0
-166 -262 0
-167 -263 0
-168 -264 0
-161 -169 0
-162 -170 0
-163 -171 0
-164 -172 0
-165 -173 0
-166 -174 0
-167 -175 0
-168 -176 0
-161 -177 0
-162 -178 0
-163 -179 0
-164 -180 0
-165 -181 0
-166 -182 0
-167 -183 0
-168 -184 0
-161 -185 0
-162 -186 0
-163 -187 0
-164 -188 0
-165 -189 0
-166 -190 0
-167 -191 0
-168 -192 0
-161 -393 0
-162 -394 0
-163 -395 0
-164 -396 0
-165 -397 0
-166 -398 0
-167 -399 0
-168 -400 0
-161 -273 0
-162 -274 0
-163 -275 0
-164 -276 0
-165 -277 0
-166 -278 0
-167 -279 0
-168 -280 0
-169 -369 0
-170 -370 0
-171 -371 0
-172 -372 0
-173 -373 0
-174 -374 0
-175 -375 0
-176 -376 0
-169 -297 0
-170 -298 0
-171 -299 0
-172 -300 0
-173 -301 0
-174 -302 0
-175 -303 0
-176 -304 0
-169 -225 0
-170 -226 0
-171 -227 0
-172 -228 0
-173 -229 0
-174 -230 0
-175 -231 0
-176 -232 0
-169 -265 0
-170 -266 0
-171 -267 0
-172 -268 0
-173 -269 0
-174 -270 0
-175 -271 0
-176 -272 0
-169 -313 0
-170 -314 0
-171 -315 0
-172 -316 0
-173 -317 0
-174 -318 0
-175 -319 0
-176 -320 0
-169 -233 0
-170 -234 0
-171 -235 0
-172 -236 0
-173 -237 0
-174 -238 0
-175 -239 0
-176 -240 0
-169 -337 0
-170 -338 0
-171 -339 0
-172 -340 0
-173 -341 0
-174 -342 0
-175 -343 0
-176 -344 0
-169 -257 0
-170 -258 0
-171 -259 0
-172 -260 0
-173 -261 0
-174 -262 0
-175 -263 0
-176 -264 0
-169 -185 0
-170 -186 0
-171 -187 0
-172 -188 0
-173 -189 0
-174 -190 0
-175 -191 0
-176 -192 0
-169 -393 0
-170 -394 0
-171 -395 0
-172 -396 0
-173 -397 0
-174 -398 0
-175 -399 0
-176 -400 0
-177 -297 0
-178 -298 0
-179 -299 0
-180 -300 0
-181 -301 0
-182 -302 0
-183 -303 0
-184 -304 0
-177 -353 0
-178 -354 0
-179 -355 0
-180 -356 0
-181 -357 0
-182 -358 0
-183 -359 0
-184 -360 0
-177 -305 0
-178 -306 0
-179 -307 0
-180 -308 0
-181 -309 0
-182 -310 0
-183 -311 0
-184 -312 0
-177 -265 0
-178 -266 0
-179 -267 0
-180 -268 0
-181 -269 0
-182 -270 0
-183 -271 0
-184 -272 0
-177 -313 0
-178 -314 0
-179 -315 0
-180 -316 0
-181 -317 0
-182 -318 0
-183 -319 0
-184 -320 0
-177 -201 0
-178 -202 0
-179 -203 0
-180 -204 0
-181 -205 0
-182 -206 0
-183 -207 0
-184 -208 0
-177 -393 0
-178 -394 0
-179 -395 0
-180 -396 0
-181 -397 0
-182 -398 0
-183 -399 0
-184 -400 0
-185 -369 0
-186 -370 0
-187 -371 0
-188 -372 0
-189 -373 0
-190 -374 0
-191 -375 0
-192 -376 0
-185 -217 0
-186 -218 0
-187 -219 0
-188 -220 0
-189 -221 0
-190 -222 0
-191 -223 0
-192 -224 0
-185 -225 0
-186 -226 0
-187 -227 0
-188 -228 0
-189 -229 0
-190 -230 0
-191 -231 0
-192 -232 0
-185 -265 0
-186 -266 0
-187 -267 0
-188 -268 0
-189 -269 0
-190 -270 0
-191 -271 0
-192 -272 0
-185 -233 0
-186 -234 0
-187 -235 0
-188 -236 0
-189 -237 0
-190 -238 0
-191 -239 0
-192 -240 0
-185 -337 0
-186 -338 0
-187 -339 0
-188 -340 0
-189 -341 0
-190 -342 0
-191 -343 0
-192 -344 0
-185 -257 0
-186 -258 0
-187 -259 0
-188 -260 0
-189 -261 0
-190 -262 0
-191 -263 0
-192 -264 0
-185 -393 0
-186 -394 0
-187 -395 0
-188 -396 0
-189 -397 0
-190 -398 0
-191 -399 0
-192 -400 0
-185 -273 0
-186 -274 0
-187 -275 0
-188 -276 0
-189 -277 0
-190 -278 0
-191 -279 0
-192 -280 0
-193 -281 0
-194 -282 0
-195 -283 0
-196 -284 0
-197 -285 0
-198 -286 0
-199 -287 0
-200 -288 0
-193 -329 0
-194 -330 0
-195 -331 0
-196 -332 0
-197 -333 0
-198 -334 0
-199 -335 0
-200 -336 0
-193 -217 0
-194 -218 0
-195 -219 0
-196 -220 0
-197 -221 0
-198 -222 0
-199 -223 0
-200 -224 0
-193 -345 0
-194 -346 0
-195 -347 0
-196 -348 0
-197 -349 0
-198 -350 0
-199 -351 0
-200 -352 0
-193 -305 0
-194 -306 0
-195 -307 0
-196 -308 0
-197 -309 0
-198 -310 0
-199 -311 0
-200 -312 0
-193 -225 0
-194 -226 0
-195 -227 0
-196 -228 0
-197 -229 0
-198 -230 0
-199 -231 0
-200 -232 0
-193 -337 0
-194 -338 0
-195 -339 0
-196 -340 0
-197 -341 0
-198 -342 0
-199 -343 0
-200 -344 0
-193 -393 0
-194 -394 0
-195 -395 0
-196 -396 0
-197 -397 0
-198 -398 0
-199 -399 0
-200 -400 0
-201 -369 0
-202 -370 0
-203 -371 0
-204 -372 0
-205 -373 0
-206 -374 0
-207 -375 0
-208 -376 0
-201 -297 0
-202 -298 0
-203 -299 0
-204 -300 0
-205 -301 0
-206 -302 0
-207 -303 0
-208 -304 0
-201 -353 0
-202 -354 0
-203 -355 0
-204 -356 0
-205 -357 0
-206 -358 0
-207 -359 0
-208 -360 0
-201 -385 0
-202 -386 0
-203 -387 0
-204 -388 0
-205 -389 0
-206 -390 0
-207 -391 0
-208 -392 0
-201 -265 0
-202 -266 0
-203 -267 0
-204 -268 0
-205 -269 0
-206 -270 0
-207 -271 0
-208 -272 0
-201 -361 0
-202 -362 0
-203 -363 0
-204 -364 0
-205 -365 0
-206 -366 0
-207 -367 0
-208 -368 0
-201 -313 0
-202 -314 0
-203 -315 0
-204 -316 0
-205 -317 0
-206 -318 0
-207 -319 0
-208 -320 0
-209 -401 0
-210 -402 0
-211 -403 0
-212 -404 0
-213 -405 0
-214 -406 0
-215 -407 0
-216 -408 0
-209 -249 0
-210 -250 0
-211 -251 0
-212 -252 0
-213 -253 0
-214 -254 0
-215 -255 0
-216 -256 0
-209 -345 0
-210 -346 0
-211 -347 0
-212 -348 0
-213 -349 0
-214 -350 0
-215 -351 0
-216 -352 0
-209 -241 0
-210 -242 0
-211 -243 0
-212 -244 0
-213 -245 0
-214 -246 0
-215 -247 0
-216 -248 0
-209 -289 0
-210 -290 0
-211 -291 0
-212 -292 0
-213 -293 0
-214 -294 0
-215 -295 0
-216 -296 0
-209 -329 0
-210 -330 0
-211 -331 0
-212 -332 0
-213 -333 0
-214 -334 0
-215 -335 0
-216 -336 0
-209 -217 0
-210 -218 0
-211 -219 0
-212 -220 0
-213 -221 0
-214 -222 0
-215 -223 0
-216 -224 0
-209 -385 0
-210 -386 0
-211 -387 0
-212 -388 0
-213 -389 0
-214 -390 0
-215 -391 0
-216 -392 0
-209 -377 0
-210 -378 0
-211 -379 0
-212 -380 0
-213 -381 0
-214 -382 0
-215 -383 0
-216 -384 0
-209 -321 0
-210 -322 0
-211 -323 0
-212 -324 0
-213 -325 0
-214 -326 0
-215 -327 0
-216 -328 0
-217 -249 0
-218 -250 0
-219 -251 0
-220 -252 0
-221 -253 0
-222 -254 0
-223 -255 0
-224 -256 0
-217 -329 0
-218 -330 0
-219 -331 0
-220 -332 0
-221 -333 0
-222 -334 0
-223 -335 0
-224 -336 0
-217 -345 0
-218 -346 0
-219 -347 0
-220 -348 0
-221 -349 0
-222 -350 0
-223 -351 0
-224 -352 0
-217 -337 0
-218 -338 0
-219 -339 0
-220 -340 0
-221 -341 0
-222 -342 0
-223 -343 0
-224 -344 0
-217 -241 0
-218 -242 0
-219 -243 0
-220 -244 0
-221 -245 0
-222 -246 0
-223 -247 0
-224 -248 0
-217 -225 0
-218 -226 0
-219 -227 0
-220 -228 0
-221 -229 0
-222 -230 0
-223 -231 0
-224 -232 0
-217 -233 0
-218 -234 0
-219 -235 0
-220 -236 0
-221 -237 0
-222 -238 0
-223 -239 0
-224 -240 0
-225 -297 0
-226 -298 0
-227 -299 0
-228 -300 0
-229 -301 0
-230 -302 0
-231 -303 0
-232 -304 0
-225 -281 0
-226 -282 0
-227 -283 0
-228 -284 0
-229 -285 0
-230 -286 0
-231 -287 0
-232 -288 0
-225 -329 0
-226 -330 0
-227 -331 0
-228 -332 0
-229 -333 0
-230 -334 0
-231 -335 0
-232 -336 0
-225 -305 0
-226 -306 0
-227 -307 0
-228 -308 0
-229 -309 0
-230 -310 0
-231 -311 0
-232 -312 0
-225 -337 0
-226 -338 0
-227 -339 0
-228 -340 0
-229 -341 0
-230 -342 0
-231 -343 0
-232 -344 0
-225 -393 0
-226 -394 0
-227 -395 0
-228 -396 0
-229 -397 0
-230 -398 0
-231 -399 0
-232 -400 0
-225 -265 0
-226 -266 0
-227 -267 0
-228 -268 0
-229 -269 0
-230 -270 0
-231 -271 0
-232 -272 0
-233 -369 0
-234 -370 0
-235 -371 0
-236 -372 0
-237 -373 0
-238 -374 0
-239 -375 0
-240 -376 0
-233 -249 0
-234 -250 0
-235 -251 0
-236 -252 0
-237 -253 0
-238 -254 0
-239 -255 0
-240 -256 0
-233 -321 0
-234 -322 0
-235 -323 0
-236 -324 0
-237 -325 0
-238 -326 0
-239 -327 0
-240 -328 0
-233 -257 0
-234 -258 0
-235 -259 0
-236 -260 0
-237 -261 0
-238 -262 0
-239 -263 0
-240 -264 0
-233 -273 0
-234 -274 0
-235 -275 0
-236 -276 0
-237 -277 0
-238 -278 0
-239 -279 0
-240 -280 0
-233 -337 0
-234 -338 0
-235 -339 0
-236 -340 0
-237 -341 0
-238 -342 0
-239 -343 0
-240 -344 0
-233 -241 0
-234 -242 0
-235 -243 0
-236 -244 0
-237 -245 0
-238 -246 0
-239 -247 0
-240 -248 0
-241 -401 0
-242 -402 0
-243 -403 0
-244 -404 0
-245 -405 0
-246 -406 0
-247 -407 0
-248 -408 0
-241 -249 0
-242 -250 0
-243 -251 0
-244 -252 0
-245 -253 0
-246 -254 0
-247 -255 0
-248 -256 0
-241 -329 0
-242 -330 0
-243 -331 0
-244 -332 0
-245 -333 0
-246 -334 0
-247 -335 0
-248 -336 0
-241 -345 0
-242 -346 0
-243 -347 0
-244 -348 0
-245 -349 0
-246 -350 0
-247 -351 0
-248 -352 0
-241 -321 0
-242 -322 0
-243 -323 0
-244 -324 0
-245 -325 0
-246 -326 0
-247 -327 0
-248 -328 0
-241 -337 0
-242 -338 0
-243 -339 0
-244 -340 0
-245 -341 0
-246 -342 0
-247 -343 0
-248 -344 0
-241 -273 0
-242 -274 0
-243 -275 0
-244 -276 0
-245 -277 0
-246 -278 0
-247 -279 0
-248 -280 0
-249 -401 0
-250 -402 0
-251 -403 0
-252 -404 0
-253 -405 0
-254 -406 0
-255 -407 0
-256 -408 0
-249 -321 0
-250 -322 0
-251 -323 0
-252 -324 0
-253 -325 0
-254 -326 0
-255 -327 0
-256 -328 0
-249 -345 0
-250 -346 0
-251 -347 0
-252 -348 0
-253 -349 0
-254 -350 0
-255 -351 0
-256 -352 0
-249 -385 0
-250 -386 0
-251 -387 0
-252 -388 0
-253 -389 0
-254 -390 0
-255 -391 0
-256 -392 0
-249 -377 0
-250 -378 0
-251 -379 0
-252 -380 0
-253 -381 0
-254 -382 0
-255 -383 0
-256 -384 0
-249 -273 0
-250 -274 0
-251 -275 0
-252 -276 0
-253 -277 0
-254 -278 0
-255 -279 0
-256 -280 0
-257 -369 0
-258 -370 0
-259 -371 0
-260 -372 0
-261 -373 0
-262 -374 0
-263 -375 0
-264 -376 0
-257 -265 0
-258 -266 0
-259 -267 0
-260 -268 0
-261 -269 0
-262 -270 0
-263 -271 0
-264 -272 0
-257 -321 0
-258 -322 0
-259 -323 0
-260 -324 0
-261 -325 0
-262 -326 0
-263 -327 0
-264 -328 0
-257 -273 0
-258 -274 0
-259 -275 0
-260 -276 0
-261 -277 0
-262 -278 0
-263 -279 0
-264 -280 0
-265 -369 0
-266 -370 0
-267 -371 0
-268 -372 0
-269 -373 0
-270 -374 0
-271 -375 0
-272 -376 0
-265 -297 0
-266 -298 0
-267 -299 0
-268 -300 0
-269 -301 0
-270 -302 0
-271 -303 0
-272 -304 0
-265 -353 0
-266 -354 0
-267 -355 0
-268 -356 0
-269 -357 0
-270 -358 0
-271 -359 0
-272 -360 0
-265 -313 0
-266 -314 0
-267 -315 0
-268 -316 0
-269 -317 0
-270 -318 0
-271 -319 0
-272 -320 0
-265 -393 0
-266 -394 0
-267 -395 0
-268 -396 0
-269 -397 0
-270 -398 0
-271 -399 0
-272 -400 0
-273 -401 0
-274 -402 0
-275 -403 0
-276 -404 0
-277 -405 0
-278 -406 0
-279 -407 0
-280 -408 0
-273 -369 0
-274 -370 0
-275 -371 0
-276 -372 0
-277 -373 0
-278 -374 0
-279 -375 0
-280 -376 0
-273 -385 0
-274 -386 0
-275 -387 0
-276 -388 0
-277 -389 0
-278 -390 0
-279 -391 0
-280 -392 0
-273 -321 0
-274 -322 0
-275 -323 0
-276 -324 0
-277 -325 0
-278 -326 0
-279 -327 0
-280 -328 0
-281 -305 0
-282 -306 0
-283 -307 0
-284 -308 0
-285 -309 0
-286 -310 0
-287 -311 0
-288 -312 0
-281 -329 0
-282 -330 0
-283 -331 0
-284 -332 0
-285 -333 0
-286 -334 0
-287 -335 0
-288 -336 0
-281 -345 0
-282 -346 0
-283 -347 0
-284 -348 0
-285 -349 0
-286 -350 0
-287 -351 0
-288 -352 0
-281 -337 0
-282 -338 0
-283 -339 0
-284 -340 0
-285 -341 0
-286 -342 0
-287 -343 0
-288 -344 0
-289 -401 0
-290 -402 0
-291 -403 0
-292 -404 0
-293 -405 0
-294 -406 0
-295 -407 0
-296 -408 0
-289 -377 0
-290 -378 0
-291 -379 0
-292 -380 0
-293 -381 0
-294 -382 0
-295 -383 0
-296 -384 0
-289 -361 0
-290 -362 0
-291 -363 0
-292 -364 0
-293 -365 0
-294 -366 0
-295 -367 0
-296 -368 0
-289 -353 0
-290 -354 0
-291 -355 0
-292 -356 0
-293 -357 0
-294 -358 0
-295 -359 0
-296 -360 0
-289 -385 0
-290 -386 0
-291 -387 0
-292 -388 0
-293 -389 0
-294 -390 0
-295 -391 0
-296 -392 0
-297 -313 0
-298 -314 0
-299 -315 0
-300 -316 0
-301 -317 0
-302 -318 0
-303 -319 0
-304 -320 0
-297 -393 0
-298 -394 0
-299 -395 0
-300 -396 0
-301 -397 0
-302 -398 0
-303 -399 0
-304 -400 0
-297 -353 0
-298 -354 0
-299 -355 0
-300 -356 0
-301 -357 0
-302 -358 0
-303 -359 0
-304 -360 0
-297 -305 0
-298 -306 0
-299 -307 0
-300 -308 0
-301 -309 0
-302 -310 0
-303 -311 0
-304 -312 0
-305 -329 0
-306 -330 0
-307 -331 0
-308 -332 0
-309 -333 0
-310 -334 0
-311 -335 0
-312 -336 0
-305 -337 0
-306 -338 0
-307 -339 0
-308 -340 0
-309 -341 0
-310 -342 0
-311 -343 0
-312 -344 0
-305 -393 0
-306 -394 0
-307 -395 0
-308 -396 0
-309 -397 0
-310 -398 0
-311 -399 0
-312 -400 0
-313 -369 0
-314 -370 0
-315 -371 0
-316 -372 0
-317 -373 0
-318 -374 0
-319 -375 0
-320 -376 0
-313 -353 0
-314 -354 0
-315 -355 0
-316 -356 0
-317 -357 0
-318 -358 0
-319 -359 0
-320 -360 0
-313 -393 0
-314 -394 0
-315 -395 0
-316 -396 0
-317 -397 0
-318 -398 0
-319 -399 0
-320 -400 0
-321 -401 0
-322 -402 0
-323 -403 0
-324 -404 0
-325 -405 0
-326 -406 0
-327 -407 0
-328 -408 0
-321 -369 0
-322 -370 0
-323 -371 0
-324 -372 0
-325 -373 0
-326 -374 0
-327 -375 0
-328 -376 0
-321 -385 0
-322 -386 0
-323 -387 0
-324 -388 0
-325 -389 0
-326 -390 0
-327 -391 0
-328 -392 0
-321 -377 0
-322 -378 0
-323 -379 0
-324 -380 0
-325 -381 0
-326 -382 0
-327 -383 0
-328 -384 0
-321 -361 0
-322 -362 0
-323 -363 0
-324 -364 0
-325 -365 0
-326 -366 0
-327 -367 0
-328 -368 0
-329 -345 0
-330 -346 0
-331 -347 0
-332 -348 0
-333 -349 0
-334 -350 0
-335 -351 0
-336 -352 0
-329 -337 0
-330 -338 0
-331 -339 0
-332 -340 0
-333 -341 0
-334 -342 0
-335 -343 0
-336 -344 0
-337 -345 0
-338 -346 0
-339 -347 0
-340 -348 0
-341 -349 0
-342 -350 0
-343 -351 0
-344 -352 0
-337 -393 0
-338 -394 0
-339 -395 0
-340 -396 0
-341 -397 0
-342 -398 0
-343 -399 0
-344 -400 0
-345 -401 0
-346 -402 0
-347 -403 0
-348 -404 0
-349 -405 0
-350 -406 0
-351 -407 0
-352 -408 0
-353 -361 0
-354 -362 0
-355 -363 0
-356 -364 0
-357 -365 0
-358 -366 0
-359 -367 0
-360 -368 0
-361 -401 0
-362 -402 0
-363 -403 0
-364 -404 0
-365 -405 0
-366 -406 0
-367 -407 0
-368 -408 0
-361 -385 0
-362 -386 0
-363 -387 0
-364 -388 0
-365 -389 0
-366 -390 0
-367 -391 0
-368 -392 0
-361 -377 0
-362 -378 0
-363 -379 0
-364 -380 0
-365 -381 0
-366 -382 0
-367 -383 0
-368 -384 0
-369 -385 0
-370 -386 0
-371 -387 0
-372 -388 0
-373 -389 0
-374 -390 0
-375 -391 0
-376 -392 0
-377 -401 0
-378 -402 0
-379 -403 0
-380 -404 0
-381 -405 0
-382 -406 0
-383 -407 0
-384 -408 0
-377 -385 0
-378 -386 0
-379 -387 0
-380 -388 0
-381 -389 0
-382 -390 0
-383 -391 0
-384 -392 0
-385 -401 0
-386 -402 0
-387 -403 0
-388 -404 0
-389 -405 0
-390 -406 0
-391 -407 0
-392 -408 0
1 2 3 4 5 6 7 8 0
9 10 11 12 13 14 15 16 0
17 18 19 20 21 22 23 24 0
25 26 27 28 29 30 31 32 0
33 34 35 36 37 38 39 40 0
41 42 43 44 45 46 47 48 0
49 50 51 52 53 54 55 56 0
57 58 59 60 61 62 63 64 0
65 66 67 68 69 70 71 72 0
73 74 75 76 77 78 79 80 0
81 82 83 84 85 86 87 88 0
89 90 91 92 93 94 95 96 0
97 98 99 100 101 102 103 104 0
105 106 107 108 109 110 111 112 0
113 114 115 116 117 118 119 120 0
121 122 123 124 125 126 127 128 0
129 130 131 132 133 134 135 136 0
137 138 139 140 141 142 143 144 0
145 146 147 148 149 150 151 152 0
153 154 155 156 157 158 159 160 0
161 162 163 164 165 166 167 168 0
169 170 171 172 173 174 175 176 0
177 178 179 180 181 182 183 184 0
185 186 187 188 189 190 191 192 0
193 194 195 196 197 198 199 200 0
201 202 203 204 205 206 207 208 0
209 210 211 212 213 214 215 216 0
217 218 219 220 221 222 223 224 0
225 226 227 228 229 230 231 232 0
233 234 235 236 237 238 239 240 0
241 242 243 244 245 246 247 248 0
249 250 251 252 253 254 255 256 0
257 258 259 260 261 262 263 264 0
265 266 267 268 269 270 271 272 0
273 274 275 276 277 278 279 280 0
281 282 283 284 285 286 287 288 0
289 290 291 292 293 294 295 296 0
297 298 299 300 301 302 303 304 0
305 306 307 308 309 310 311 312 0
313 314 315 316 317 318 319 320 0
321 322 323 324 325 326 327 328 0
329 330 331 332 333 334 335 336 0
337 338 339 340 341 342 343 344 0
345 346 347 348 349 350 351 352 0
353 354 355 356 357 358 359 360 0
361 362 363 364 365 366 367 368 0
369 370 371 372 373 374 375 376 0
377 378 379 380 381 382 383 384 0
385 386 387 388 389 390 391 392 0
393 394 395 396 397 398 399 400 0
401 402 403 404 405 406 407 408 0
